96 26 32 61 62 93 76 30 89 86 16 52 18 34 35 55 6 4 3 45 7 10 81 
94 27 85 19 49 69 82 98 2 44 38 72 21 17 56 95 51 64 74 13 12 90 68 88 57 25 
83 37 36 40 23 15 11 67 99 9 79 97 29 80 77 75 22 58 
66 48 24 20 92 91 63 33 28 31 50 71 53 14 73 8 1 70 46 5 78 47 59 65 41 60 100 54 39 42 
43 87 84 

